
Gurobi 9.5.2 (mac64[arm]) logging started Fri Apr 28 13:32:41 2023

Set parameter LogFile to value "Java/output/pure_mip_2_machine/scenario_seed_4_nJob_30_machineCount_2/mip_increment_2/log.txt"
Gurobi Optimizer version 9.5.2 build v9.5.2rc0 (mac64[arm])
Thread count: 8 physical cores, 8 logical processors, using up to 8 threads
Optimize a model with 904 rows, 11780 columns and 82155 nonzeros
Model fingerprint: 0xa63088d3
Variable types: 0 continuous, 11780 integer (11780 binary)
Coefficient statistics:
  Matrix range     [1e+00, 1e+02]
  Objective range  [5e+00, 2e+06]
  Bounds range     [1e+00, 1e+00]
  RHS range        [1e+00, 1e+00]
Presolve removed 58 rows and 2248 columns
Presolve time: 0.09s
Presolved: 846 rows, 9532 columns, 66445 nonzeros
Variable types: 0 continuous, 9532 integer (9528 binary)

Root relaxation: objective 6.054570e+04, 7187 iterations, 0.32 seconds (0.61 work units)

    Nodes    |    Current Node    |     Objective Bounds      |     Work
 Expl Unexpl |  Obj  Depth IntInf | Incumbent    BestBd   Gap | It/Node Time

     0     0 60545.7040    0  297          - 60545.7040      -     -    0s
     0     0 63241.1062    0  368          - 63241.1062      -     -    0s
     0     0 63268.0994    0  381          - 63268.0994      -     -    1s
     0     0 63268.2672    0  384          - 63268.2672      -     -    1s
     0     0 66044.3695    0  397          - 66044.3695      -     -    1s
     0     0 67843.9173    0  411          - 67843.9173      -     -    1s
     0     0 68045.4999    0  410          - 68045.4999      -     -    2s
     0     0 68063.8613    0  423          - 68063.8613      -     -    2s
     0     0 68064.0592    0  430          - 68064.0592      -     -    2s
     0     0 72744.2394    0  438          - 72744.2394      -     -    2s
     0     0 73171.4194    0  455          - 73171.4194      -     -    3s
     0     0 73200.2324    0  439          - 73200.2324      -     -    3s
     0     0 73201.2511    0  453          - 73201.2511      -     -    3s
     0     0 83464.2975    0  464          - 83464.2975      -     -    4s
H    0     0                    896944.00000 84503.4000  90.6%     -    4s
     0     0 84503.4000    0  479 896944.000 84503.4000  90.6%     -    4s
     0     0 84739.0471    0  492 896944.000 84739.0471  90.6%     -    4s
     0     0 84759.6025    0  489 896944.000 84759.6025  90.6%     -    4s
     0     0 84762.9881    0  494 896944.000 84762.9881  90.5%     -    4s
     0     0 89044.2632    0  487 896944.000 89044.2632  90.1%     -    5s
H    0     0                    895469.00000 89044.2632  90.1%     -    5s
H    0     0                    856565.00000 89044.2632  89.6%     -    5s
     0     0 89765.7936    0  490 856565.000 89765.7936  89.5%     -    5s
     0     0 90067.0280    0  485 856565.000 90067.0280  89.5%     -    5s
     0     0 90074.9247    0  491 856565.000 90074.9247  89.5%     -    5s
     0     0 96458.2070    0  510 856565.000 96458.2070  88.7%     -    6s
H    0     0                    748790.00000 96458.2070  87.1%     -    6s
     0     0 96696.8813    0  538 748790.000 96696.8813  87.1%     -    7s
     0     0 96724.6640    0  550 748790.000 96724.6640  87.1%     -    7s
     0     0 100080.831    0  520 748790.000 100080.831  86.6%     -    7s
H    0     0                    722306.00000 100080.831  86.1%     -    7s
     0     0 101251.460    0  510 722306.000 101251.460  86.0%     -    8s
     0     0 101937.377    0  519 722306.000 101937.377  85.9%     -    9s
     0     0 102016.180    0  545 722306.000 102016.180  85.9%     -    9s
     0     0 102023.741    0  543 722306.000 102023.741  85.9%     -    9s
     0     0 104267.674    0  540 722306.000 104267.674  85.6%     -   10s
     0     0 104389.451    0  572 722306.000 104389.451  85.5%     -   10s
     0     0 104422.398    0  567 722306.000 104422.398  85.5%     -   10s
     0     0 104569.001    0  586 722306.000 104569.001  85.5%     -   10s
     0     0 104569.001    0  578 722306.000 104569.001  85.5%     -   10s
H    0     0                    147636.00000 104573.996  29.2%     -   11s
     0     0 104573.996    0  301 147636.000 104573.996  29.2%     -   11s
H    0     0                    142346.00000 104573.996  26.5%     -   11s
     0     0 104573.996    0  403 142346.000 104573.996  26.5%     -   12s
H    0     0                    136124.00000 104573.996  23.2%     -   12s
     0     0 104573.996    0  467 136124.000 104573.996  23.2%     -   13s
     0     0 104573.996    0  507 136124.000 104573.996  23.2%     -   13s
H    0     0                    121552.00000 104573.996  14.0%     -   13s
     0     0 104573.996    0  533 121552.000 104573.996  14.0%     -   13s
     0     0 104573.996    0  545 121552.000 104573.996  14.0%     -   14s
     0     0 104638.893    0  541 121552.000 104638.893  13.9%     -   14s
     0     0 104648.811    0  565 121552.000 104648.811  13.9%     -   14s
     0     0 104651.669    0  575 121552.000 104651.669  13.9%     -   14s
     0     0 105237.538    0  158 121552.000 105237.538  13.4%     -   14s
     0     0 105239.608    0  137 121552.000 105239.608  13.4%     -   14s
H    0     0                    120598.00000 105239.608  12.7%     -   15s
     0     0 105275.339    0  545 120598.000 105275.339  12.7%     -   15s
     0     0 105275.339    0  545 120598.000 105275.339  12.7%     -   15s
H    0     0                    120268.00000 105277.095  12.5%     -   15s
     0     2 105277.095    0  545 120268.000 105277.095  12.5%     -   15s
H   32    38                    119949.00000 105687.309  11.9%  2153   18s
H   35    38                    114829.00000 105687.309  7.96%  2068   18s
H   68    62                    111542.00000 105802.416  5.15%  1605   19s
H   74    62                    107144.00000 105802.416  1.25%  1577   19s
   119    23     cutoff   12      107144.000 105978.631  1.09%  1053   20s

Cutting planes:
  Gomory: 4
  Cover: 23
  Clique: 102
  MIR: 137
  StrongCG: 74
  GUB cover: 177
  Inf proof: 2
  Zero half: 9
  RLT: 5

Explored 234 nodes (254382 simplex iterations) in 20.42 seconds (43.64 work units)
Thread count was 8 (of 8 available processors)

Solution count 10: 107144 111542 114829 ... 147636

Optimal solution found (tolerance 1.00e-04)
Best objective 1.071440000000e+05, best bound 1.071440000000e+05, gap 0.0000%
